NAME JobShopModel
ROWS
 N  OBJ
 E  c0      
 E  c1      
 E  c2      
 E  c3      
 E  c4      
 E  c5      
 E  c6      
 E  c7      
 E  c8      
 L  c9      
 L  c10     
 L  c11     
 L  c12     
 L  c13     
 L  c14     
 L  c15     
 L  c16     
 L  c17     
 L  c18     
 L  c19     
 L  c20     
 L  c21     
 L  c22     
 L  c23     
 G  c24     
 G  c25     
 G  c26     
 G  c27     
 G  c28     
 G  c29     
 G  c30     
 G  c31     
 G  c32     
 G  c33     
 G  c34     
 G  c35     
 G  c36     
 G  c37     
 G  c38     
 G  c39     
 G  c40     
 G  c41     
 G  c42     
 G  c43     
 G  c44     
 G  c45     
 G  c46     
 G  c47     
 G  c48     
 G  c49     
 G  c50     
 G  c51     
 G  c52     
 G  c53     
 G  c54     
 G  c55     
 G  c56     
 G  c57     
 G  c58     
 G  c59     
 G  c60     
 G  c61     
 G  c62     
 G  c63     
 G  c64     
 G  c65     
 G  c66     
 G  c67     
 G  c68     
 G  c69     
 G  c70     
 G  c71     
 G  c72     
 G  c73     
 G  c74     
 G  c75     
 G  c76     
 G  c77     
 G  c78     
 G  c79     
 G  c80     
 G  c81     
 G  c82     
 G  c83     
 G  c84     
 G  c85     
 G  c86     
 G  c87     
 G  c88     
 G  c89     
 G  c90     
 G  c91     
 G  c92     
 G  c93     
 G  c94     
 G  c95     
 G  c96     
 G  c97     
 G  c98     
 G  c99     
 G  c100    
 G  c101    
 G  c102    
 G  c103    
 G  c104    
 G  c105    
 G  c106    
 G  c107    
 G  c108    
 G  c109    
 G  c110    
 G  c111    
 G  c112    
 G  c113    
 G  c114    
 G  c115    
 G  c116    
 G  c117    
 G  c118    
 G  c119    
 G  c120    
 G  c121    
 G  c122    
 G  c123    
 G  c124    
 G  c125    
 L  c126    
 G  c127    
 L  c128    
 G  c129    
 L  c130    
 G  c131    
 L  c132    
 G  c133    
 L  c134    
 G  OF_constraint
COLUMNS
    MARKER    'MARKER'                 'INTORG'
    y[0,0,1]  c0        1
    y[0,0,1]  c9        -1000000
    y[0,0,1]  c24       -1000000
    y[0,0,1]  c25       -1000000
    y[0,0,1]  c28       -1000000
    y[0,0,1]  c29       -1000000
    y[0,0,1]  c30       -1000000
    y[0,0,1]  c31       -1000000
    y[0,0,1]  c34       -1000000
    y[0,0,1]  c35       -1000000
    y[0,0,1]  c38       -1000000
    y[0,0,1]  c39       -1000000
    y[0,0,1]  c40       -1000000
    y[0,0,1]  c41       -1000000
    y[0,0,1]  c125      50
    y[0,0,1]  c126      50
    y[0,0,2]  c0        1
    y[0,0,2]  c10       -1000000
    y[0,0,2]  c26       -1000000
    y[0,0,2]  c27       -1000000
    y[0,0,2]  c32       -1000000
    y[0,0,2]  c33       -1000000
    y[0,0,2]  c36       -1000000
    y[0,0,2]  c37       -1000000
    y[0,0,2]  c127      60
    y[0,0,2]  c128      60
    y[0,1,0]  c1        1
    y[0,1,0]  c11       -1000000
    y[0,1,0]  c42       -1000000
    y[0,1,0]  c43       -1000000
    y[0,1,0]  c44       -1000000
    y[0,1,0]  c45       -1000000
    y[0,1,0]  c48       -1000000
    y[0,1,0]  c49       -1000000
    y[0,1,0]  c54       -1000000
    y[0,1,0]  c55       -1000000
    y[0,1,0]  c58       -1000000
    y[0,1,0]  c59       -1000000
    y[0,1,0]  c119      -40
    y[0,1,1]  c1        1
    y[0,1,1]  c12       -1000000
    y[0,1,1]  c24       -1000000
    y[0,1,1]  c25       -1000000
    y[0,1,1]  c40       -1000000
    y[0,1,1]  c41       -1000000
    y[0,1,1]  c46       -1000000
    y[0,1,1]  c47       -1000000
    y[0,1,1]  c50       -1000000
    y[0,1,1]  c51       -1000000
    y[0,1,1]  c52       -1000000
    y[0,1,1]  c53       -1000000
    y[0,1,1]  c56       -1000000
    y[0,1,1]  c57       -1000000
    y[0,1,1]  c119      -130
    y[0,2,0]  c2        1
    y[0,2,0]  c13       -1000000
    y[0,2,0]  c42       -1000000
    y[0,2,0]  c43       -1000000
    y[0,2,0]  c58       -1000000
    y[0,2,0]  c59       -1000000
    y[0,2,0]  c60       -1000000
    y[0,2,0]  c61       -1000000
    y[0,2,0]  c62       -1000000
    y[0,2,0]  c63       -1000000
    y[0,2,0]  c64       -1000000
    y[0,2,0]  c65       -1000000
    y[0,2,0]  c105      -480
    y[0,2,0]  c120      -17
    y[1,0,2]  c3        1
    y[1,0,2]  c14       -1000000
    y[1,0,2]  c26       -1000000
    y[1,0,2]  c27       -1000000
    y[1,0,2]  c66       -1000000
    y[1,0,2]  c67       -1000000
    y[1,0,2]  c68       -1000000
    y[1,0,2]  c69       -1000000
    y[1,0,2]  c129      70
    y[1,0,2]  c130      70
    y[1,1,0]  c4        1
    y[1,1,0]  c15       -1000000
    y[1,1,0]  c44       -1000000
    y[1,1,0]  c45       -1000000
    y[1,1,0]  c60       -1000000
    y[1,1,0]  c61       -1000000
    y[1,1,0]  c70       -1000000
    y[1,1,0]  c71       -1000000
    y[1,1,0]  c76       -1000000
    y[1,1,0]  c77       -1000000
    y[1,1,0]  c80       -1000000
    y[1,1,0]  c81       -1000000
    y[1,1,0]  c121      -150
    y[1,1,1]  c4        1
    y[1,1,1]  c16       -1000000
    y[1,1,1]  c28       -1000000
    y[1,1,1]  c29       -1000000
    y[1,1,1]  c46       -1000000
    y[1,1,1]  c47       -1000000
    y[1,1,1]  c72       -1000000
    y[1,1,1]  c73       -1000000
    y[1,1,1]  c74       -1000000
    y[1,1,1]  c75       -1000000
    y[1,1,1]  c78       -1000000
    y[1,1,1]  c79       -1000000
    y[1,1,1]  c121      -160
    y[1,2,0]  c5        1
    y[1,2,0]  c17       -1000000
    y[1,2,0]  c48       -1000000
    y[1,2,0]  c49       -1000000
    y[1,2,0]  c62       -1000000
    y[1,2,0]  c63       -1000000
    y[1,2,0]  c70       -1000000
    y[1,2,0]  c71       -1000000
    y[1,2,0]  c80       -1000000
    y[1,2,0]  c81       -1000000
    y[1,2,0]  c82       -1000000
    y[1,2,0]  c83       -1000000
    y[1,2,0]  c110      -480
    y[1,2,0]  c122      -30
    y[2,0,1]  c6        1
    y[2,0,1]  c18       -1000000
    y[2,0,1]  c30       -1000000
    y[2,0,1]  c31       -1000000
    y[2,0,1]  c50       -1000000
    y[2,0,1]  c51       -1000000
    y[2,0,1]  c72       -1000000
    y[2,0,1]  c73       -1000000
    y[2,0,1]  c84       -1000000
    y[2,0,1]  c85       -1000000
    y[2,0,1]  c88       -1000000
    y[2,0,1]  c89       -1000000
    y[2,0,1]  c90       -1000000
    y[2,0,1]  c91       -1000000
    y[2,0,1]  c96       -1000000
    y[2,0,1]  c97       -1000000
    y[2,0,1]  c131      90
    y[2,0,1]  c132      90
    y[2,0,2]  c6        1
    y[2,0,2]  c19       -1000000
    y[2,0,2]  c32       -1000000
    y[2,0,2]  c33       -1000000
    y[2,0,2]  c66       -1000000
    y[2,0,2]  c67       -1000000
    y[2,0,2]  c86       -1000000
    y[2,0,2]  c87       -1000000
    y[2,0,2]  c92       -1000000
    y[2,0,2]  c93       -1000000
    y[2,0,2]  c133      100
    y[2,0,2]  c134      100
    y[2,1,1]  c7        1
    y[2,1,1]  c20       -1000000
    y[2,1,1]  c34       -1000000
    y[2,1,1]  c35       -1000000
    y[2,1,1]  c52       -1000000
    y[2,1,1]  c53       -1000000
    y[2,1,1]  c74       -1000000
    y[2,1,1]  c75       -1000000
    y[2,1,1]  c84       -1000000
    y[2,1,1]  c85       -1000000
    y[2,1,1]  c90       -1000000
    y[2,1,1]  c91       -1000000
    y[2,1,1]  c94       -1000000
    y[2,1,1]  c95       -1000000
    y[2,1,1]  c98       -1000000
    y[2,1,1]  c99       -1000000
    y[2,1,1]  c123      -170
    y[2,1,2]  c7        1
    y[2,1,2]  c21       -1000000
    y[2,1,2]  c36       -1000000
    y[2,1,2]  c37       -1000000
    y[2,1,2]  c68       -1000000
    y[2,1,2]  c69       -1000000
    y[2,1,2]  c86       -1000000
    y[2,1,2]  c87       -1000000
    y[2,1,2]  c92       -1000000
    y[2,1,2]  c93       -1000000
    y[2,1,2]  c123      -180
    y[2,2,0]  c8        1
    y[2,2,0]  c22       -1000000
    y[2,2,0]  c54       -1000000
    y[2,2,0]  c55       -1000000
    y[2,2,0]  c64       -1000000
    y[2,2,0]  c65       -1000000
    y[2,2,0]  c76       -1000000
    y[2,2,0]  c77       -1000000
    y[2,2,0]  c82       -1000000
    y[2,2,0]  c83       -1000000
    y[2,2,0]  c116      -480
    y[2,2,0]  c124      -50
    y[2,2,1]  c8        1
    y[2,2,1]  c23       -1000000
    y[2,2,1]  c38       -1000000
    y[2,2,1]  c39       -1000000
    y[2,2,1]  c56       -1000000
    y[2,2,1]  c57       -1000000
    y[2,2,1]  c78       -1000000
    y[2,2,1]  c79       -1000000
    y[2,2,1]  c88       -1000000
    y[2,2,1]  c89       -1000000
    y[2,2,1]  c94       -1000000
    y[2,2,1]  c95       -1000000
    y[2,2,1]  c96       -1000000
    y[2,2,1]  c97       -1000000
    y[2,2,1]  c98       -1000000
    y[2,2,1]  c99       -1000000
    y[2,2,1]  c118      -480
    y[2,2,1]  c124      -60
    x[0,0,0,0]  OBJ       0
    x[0,0,0,1]  c24       -1000000
    x[0,0,0,1]  c25       1000000
    x[0,0,0,2]  OBJ       0
    x[0,0,1,0]  c26       -1000000
    x[0,0,1,0]  c27       1000000
    x[0,0,1,1]  c28       -1000000
    x[0,0,1,1]  c29       1000000
    x[0,0,1,2]  OBJ       0
    x[0,0,2,0]  c30       -1000000
    x[0,0,2,0]  c31       1000000
    x[0,0,2,0]  c32       -1000000
    x[0,0,2,0]  c33       1000000
    x[0,0,2,1]  c34       -1000000
    x[0,0,2,1]  c35       1000000
    x[0,0,2,1]  c36       -1000000
    x[0,0,2,1]  c37       1000000
    x[0,0,2,2]  c38       -1000000
    x[0,0,2,2]  c39       1000000
    x[0,1,0,0]  c40       -1000000
    x[0,1,0,0]  c41       1000000
    x[0,1,0,1]  OBJ       0
    x[0,1,0,2]  c42       -1000000
    x[0,1,0,2]  c43       1000000
    x[0,1,1,0]  OBJ       0
    x[0,1,1,1]  c44       -1000000
    x[0,1,1,1]  c45       1000000
    x[0,1,1,1]  c46       -1000000
    x[0,1,1,1]  c47       1000000
    x[0,1,1,2]  c48       -1000000
    x[0,1,1,2]  c49       1000000
    x[0,1,2,0]  c50       -1000000
    x[0,1,2,0]  c51       1000000
    x[0,1,2,1]  c52       -1000000
    x[0,1,2,1]  c53       1000000
    x[0,1,2,2]  c54       -1000000
    x[0,1,2,2]  c55       1000000
    x[0,1,2,2]  c56       -1000000
    x[0,1,2,2]  c57       1000000
    x[0,2,0,0]  OBJ       0
    x[0,2,0,1]  c58       -1000000
    x[0,2,0,1]  c59       1000000
    x[0,2,0,2]  OBJ       0
    x[0,2,1,0]  OBJ       0
    x[0,2,1,1]  c60       -1000000
    x[0,2,1,1]  c61       1000000
    x[0,2,1,2]  c62       -1000000
    x[0,2,1,2]  c63       1000000
    x[0,2,2,0]  OBJ       0
    x[0,2,2,1]  OBJ       0
    x[0,2,2,2]  c64       -1000000
    x[0,2,2,2]  c65       1000000
    x[1,0,0,0]  OBJ       0
    x[1,0,0,1]  OBJ       0
    x[1,0,0,2]  OBJ       0
    x[1,0,1,0]  OBJ       0
    x[1,0,1,1]  OBJ       0
    x[1,0,1,2]  OBJ       0
    x[1,0,2,0]  c66       -1000000
    x[1,0,2,0]  c67       1000000
    x[1,0,2,1]  c68       -1000000
    x[1,0,2,1]  c69       1000000
    x[1,0,2,2]  OBJ       0
    x[1,1,0,0]  OBJ       0
    x[1,1,0,1]  OBJ       0
    x[1,1,0,2]  OBJ       0
    x[1,1,1,0]  OBJ       0
    x[1,1,1,1]  OBJ       0
    x[1,1,1,2]  c70       -1000000
    x[1,1,1,2]  c71       1000000
    x[1,1,2,0]  c72       -1000000
    x[1,1,2,0]  c73       1000000
    x[1,1,2,1]  c74       -1000000
    x[1,1,2,1]  c75       1000000
    x[1,1,2,2]  c76       -1000000
    x[1,1,2,2]  c77       1000000
    x[1,1,2,2]  c78       -1000000
    x[1,1,2,2]  c79       1000000
    x[1,2,0,0]  OBJ       0
    x[1,2,0,1]  OBJ       0
    x[1,2,0,2]  OBJ       0
    x[1,2,1,0]  OBJ       0
    x[1,2,1,1]  c80       -1000000
    x[1,2,1,1]  c81       1000000
    x[1,2,1,2]  OBJ       0
    x[1,2,2,0]  OBJ       0
    x[1,2,2,1]  OBJ       0
    x[1,2,2,2]  c82       -1000000
    x[1,2,2,2]  c83       1000000
    x[2,0,0,0]  OBJ       0
    x[2,0,0,1]  OBJ       0
    x[2,0,0,2]  OBJ       0
    x[2,0,1,0]  OBJ       0
    x[2,0,1,1]  OBJ       0
    x[2,0,1,2]  OBJ       0
    x[2,0,2,0]  OBJ       0
    x[2,0,2,1]  c84       -1000000
    x[2,0,2,1]  c85       1000000
    x[2,0,2,1]  c86       -1000000
    x[2,0,2,1]  c87       1000000
    x[2,0,2,2]  c88       -1000000
    x[2,0,2,2]  c89       1000000
    x[2,1,0,0]  OBJ       0
    x[2,1,0,1]  OBJ       0
    x[2,1,0,2]  OBJ       0
    x[2,1,1,0]  OBJ       0
    x[2,1,1,1]  OBJ       0
    x[2,1,1,2]  OBJ       0
    x[2,1,2,0]  c90       -1000000
    x[2,1,2,0]  c91       1000000
    x[2,1,2,0]  c92       -1000000
    x[2,1,2,0]  c93       1000000
    x[2,1,2,1]  OBJ       0
    x[2,1,2,2]  c94       -1000000
    x[2,1,2,2]  c95       1000000
    x[2,2,0,0]  OBJ       0
    x[2,2,0,1]  OBJ       0
    x[2,2,0,2]  OBJ       0
    x[2,2,1,0]  OBJ       0
    x[2,2,1,1]  OBJ       0
    x[2,2,1,2]  OBJ       0
    x[2,2,2,0]  c96       -1000000
    x[2,2,2,0]  c97       1000000
    x[2,2,2,1]  c98       -1000000
    x[2,2,2,1]  c99       1000000
    x[2,2,2,2]  OBJ       0
    MARKER    'MARKER'                 'INTEND'
    s[0,0,1]  c9        1
    s[0,0,1]  c24       1
    s[0,0,1]  c25       -1
    s[0,0,1]  c28       1
    s[0,0,1]  c29       -1
    s[0,0,1]  c30       1
    s[0,0,1]  c31       -1
    s[0,0,1]  c34       1
    s[0,0,1]  c35       -1
    s[0,0,1]  c38       1
    s[0,0,1]  c39       -1
    s[0,0,1]  c40       -1
    s[0,0,1]  c41       1
    s[0,0,1]  c100      1
    s[0,0,1]  c119      1
    s[0,0,1]  c125      1
    s[0,0,1]  c126      1
    s[0,0,2]  c10       1
    s[0,0,2]  c26       1
    s[0,0,2]  c27       -1
    s[0,0,2]  c32       1
    s[0,0,2]  c33       -1
    s[0,0,2]  c36       1
    s[0,0,2]  c37       -1
    s[0,0,2]  c101      1
    s[0,0,2]  c119      1
    s[0,0,2]  c127      1
    s[0,0,2]  c128      1
    s[0,1,0]  c11       1
    s[0,1,0]  c42       1
    s[0,1,0]  c43       -1
    s[0,1,0]  c44       1
    s[0,1,0]  c45       -1
    s[0,1,0]  c48       1
    s[0,1,0]  c49       -1
    s[0,1,0]  c54       1
    s[0,1,0]  c55       -1
    s[0,1,0]  c58       -1
    s[0,1,0]  c59       1
    s[0,1,0]  c102      1
    s[0,1,0]  c119      -1
    s[0,1,0]  c120      1
    s[0,1,1]  c12       1
    s[0,1,1]  c24       -1
    s[0,1,1]  c25       1
    s[0,1,1]  c40       1
    s[0,1,1]  c41       -1
    s[0,1,1]  c46       1
    s[0,1,1]  c47       -1
    s[0,1,1]  c50       1
    s[0,1,1]  c51       -1
    s[0,1,1]  c52       1
    s[0,1,1]  c53       -1
    s[0,1,1]  c56       1
    s[0,1,1]  c57       -1
    s[0,1,1]  c103      1
    s[0,1,1]  c119      -1
    s[0,1,1]  c120      1
    s[0,2,0]  c13       1
    s[0,2,0]  c42       -1
    s[0,2,0]  c43       1
    s[0,2,0]  c58       1
    s[0,2,0]  c59       -1
    s[0,2,0]  c60       1
    s[0,2,0]  c61       -1
    s[0,2,0]  c62       1
    s[0,2,0]  c63       -1
    s[0,2,0]  c64       1
    s[0,2,0]  c65       -1
    s[0,2,0]  c104      1
    s[0,2,0]  c105      1
    s[0,2,0]  c120      -1
    s[1,0,2]  c14       1
    s[1,0,2]  c26       -1
    s[1,0,2]  c27       1
    s[1,0,2]  c66       1
    s[1,0,2]  c67       -1
    s[1,0,2]  c68       1
    s[1,0,2]  c69       -1
    s[1,0,2]  c106      1
    s[1,0,2]  c121      1
    s[1,0,2]  c129      1
    s[1,0,2]  c130      1
    s[1,1,0]  c15       1
    s[1,1,0]  c44       -1
    s[1,1,0]  c45       1
    s[1,1,0]  c60       -1
    s[1,1,0]  c61       1
    s[1,1,0]  c70       1
    s[1,1,0]  c71       -1
    s[1,1,0]  c76       1
    s[1,1,0]  c77       -1
    s[1,1,0]  c80       -1
    s[1,1,0]  c81       1
    s[1,1,0]  c107      1
    s[1,1,0]  c121      -1
    s[1,1,0]  c122      1
    s[1,1,1]  c16       1
    s[1,1,1]  c28       -1
    s[1,1,1]  c29       1
    s[1,1,1]  c46       -1
    s[1,1,1]  c47       1
    s[1,1,1]  c72       1
    s[1,1,1]  c73       -1
    s[1,1,1]  c74       1
    s[1,1,1]  c75       -1
    s[1,1,1]  c78       1
    s[1,1,1]  c79       -1
    s[1,1,1]  c108      1
    s[1,1,1]  c121      -1
    s[1,1,1]  c122      1
    s[1,2,0]  c17       1
    s[1,2,0]  c48       -1
    s[1,2,0]  c49       1
    s[1,2,0]  c62       -1
    s[1,2,0]  c63       1
    s[1,2,0]  c70       -1
    s[1,2,0]  c71       1
    s[1,2,0]  c80       1
    s[1,2,0]  c81       -1
    s[1,2,0]  c82       1
    s[1,2,0]  c83       -1
    s[1,2,0]  c109      1
    s[1,2,0]  c110      1
    s[1,2,0]  c122      -1
    s[2,0,1]  c18       1
    s[2,0,1]  c30       -1
    s[2,0,1]  c31       1
    s[2,0,1]  c50       -1
    s[2,0,1]  c51       1
    s[2,0,1]  c72       -1
    s[2,0,1]  c73       1
    s[2,0,1]  c84       1
    s[2,0,1]  c85       -1
    s[2,0,1]  c88       1
    s[2,0,1]  c89       -1
    s[2,0,1]  c90       -1
    s[2,0,1]  c91       1
    s[2,0,1]  c96       -1
    s[2,0,1]  c97       1
    s[2,0,1]  c111      1
    s[2,0,1]  c123      1
    s[2,0,1]  c131      1
    s[2,0,1]  c132      1
    s[2,0,2]  c19       1
    s[2,0,2]  c32       -1
    s[2,0,2]  c33       1
    s[2,0,2]  c66       -1
    s[2,0,2]  c67       1
    s[2,0,2]  c86       1
    s[2,0,2]  c87       -1
    s[2,0,2]  c92       -1
    s[2,0,2]  c93       1
    s[2,0,2]  c112      1
    s[2,0,2]  c123      1
    s[2,0,2]  c133      1
    s[2,0,2]  c134      1
    s[2,1,1]  c20       1
    s[2,1,1]  c34       -1
    s[2,1,1]  c35       1
    s[2,1,1]  c52       -1
    s[2,1,1]  c53       1
    s[2,1,1]  c74       -1
    s[2,1,1]  c75       1
    s[2,1,1]  c84       -1
    s[2,1,1]  c85       1
    s[2,1,1]  c90       1
    s[2,1,1]  c91       -1
    s[2,1,1]  c94       1
    s[2,1,1]  c95       -1
    s[2,1,1]  c98       -1
    s[2,1,1]  c99       1
    s[2,1,1]  c113      1
    s[2,1,1]  c123      -1
    s[2,1,1]  c124      1
    s[2,1,2]  c21       1
    s[2,1,2]  c36       -1
    s[2,1,2]  c37       1
    s[2,1,2]  c68       -1
    s[2,1,2]  c69       1
    s[2,1,2]  c86       -1
    s[2,1,2]  c87       1
    s[2,1,2]  c92       1
    s[2,1,2]  c93       -1
    s[2,1,2]  c114      1
    s[2,1,2]  c123      -1
    s[2,1,2]  c124      1
    s[2,2,0]  c22       1
    s[2,2,0]  c54       -1
    s[2,2,0]  c55       1
    s[2,2,0]  c64       -1
    s[2,2,0]  c65       1
    s[2,2,0]  c76       -1
    s[2,2,0]  c77       1
    s[2,2,0]  c82       -1
    s[2,2,0]  c83       1
    s[2,2,0]  c115      1
    s[2,2,0]  c116      1
    s[2,2,0]  c124      -1
    s[2,2,1]  c23       1
    s[2,2,1]  c38       -1
    s[2,2,1]  c39       1
    s[2,2,1]  c56       -1
    s[2,2,1]  c57       1
    s[2,2,1]  c78       -1
    s[2,2,1]  c79       1
    s[2,2,1]  c88       -1
    s[2,2,1]  c89       1
    s[2,2,1]  c94       -1
    s[2,2,1]  c95       1
    s[2,2,1]  c96       1
    s[2,2,1]  c97       -1
    s[2,2,1]  c98       1
    s[2,2,1]  c99       -1
    s[2,2,1]  c117      1
    s[2,2,1]  c118      1
    s[2,2,1]  c124      -1
    MARKER    'MARKER'                 'INTORG'
    Z_FO      OBJ       1
    Z_FO      OF_constraint  1
    C112      c125      -1000000
    C112      c126      -1000000
    C112      OF_constraint  430
    C113      c127      -1000000
    C113      c128      -1000000
    C113      OF_constraint  420
    C114      c129      -1000000
    C114      c130      -1000000
    C114      OF_constraint  410
    C115      c131      -1000000
    C115      c132      -1000000
    C115      OF_constraint  390
    C116      c133      -1000000
    C116      c134      -1000000
    C116      OF_constraint  380
    MARKER    'MARKER'                 'INTEND'
RHS
    RHS1      c0        1
    RHS1      c1        1
    RHS1      c2        1
    RHS1      c3        1
    RHS1      c4        1
    RHS1      c5        1
    RHS1      c6        1
    RHS1      c7        1
    RHS1      c8        1
    RHS1      c24       -2999764
    RHS1      c25       -1999518
    RHS1      c26       -2999828
    RHS1      c27       -1999814
    RHS1      c28       -2999412
    RHS1      c29       -1999310
    RHS1      c30       -2999858
    RHS1      c31       -1999535
    RHS1      c32       -2999728
    RHS1      c33       -1999783
    RHS1      c34       -2999797
    RHS1      c35       -1999242
    RHS1      c36       -2999753
    RHS1      c37       -1999767
    RHS1      c38       -2999220
    RHS1      c39       -1999750
    RHS1      c40       -2999518
    RHS1      c41       -1999764
    RHS1      c42       -2999464
    RHS1      c43       -1999486
    RHS1      c44       -2999346
    RHS1      c45       -1999800
    RHS1      c46       -2999590
    RHS1      c47       -1999295
    RHS1      c48       -2999953
    RHS1      c49       -1999778
    RHS1      c50       -2999790
    RHS1      c51       -1999734
    RHS1      c52       -2999754
    RHS1      c53       -1999715
    RHS1      c54       -2999554
    RHS1      c55       -1999510
    RHS1      c56       -2999364
    RHS1      c57       -1999726
    RHS1      c58       -2999486
    RHS1      c59       -1999464
    RHS1      c60       -2999702
    RHS1      c61       -1999929
    RHS1      c62       -2999798
    RHS1      c63       -1999128
    RHS1      c64       -2999585
    RHS1      c65       -1999887
    RHS1      c66       -2999716
    RHS1      c67       -1999450
    RHS1      c68       -2999654
    RHS1      c69       -1999830
    RHS1      c70       -2999574
    RHS1      c71       -1999791
    RHS1      c72       -2999852
    RHS1      c73       -1999200
    RHS1      c74       -2999566
    RHS1      c75       -1999552
    RHS1      c76       -2999286
    RHS1      c77       -1999590
    RHS1      c78       -2999529
    RHS1      c79       -1998945
    RHS1      c80       -2999791
    RHS1      c81       -1999574
    RHS1      c82       -2999815
    RHS1      c83       -1999522
    RHS1      c84       -2999620
    RHS1      c85       -1999771
    RHS1      c86       -2999748
    RHS1      c87       -1999756
    RHS1      c88       -2999536
    RHS1      c89       -1999604
    RHS1      c90       -2999771
    RHS1      c91       -1999620
    RHS1      c92       -2999756
    RHS1      c93       -1999748
    RHS1      c94       -2999370
    RHS1      c95       -1999744
    RHS1      c96       -2999604
    RHS1      c97       -1999536
    RHS1      c98       -2999744
    RHS1      c99       -1999370
    RHS1      c125      -999520
    RHS1      c126      480
    RHS1      c127      -999520
    RHS1      c128      480
    RHS1      c129      -999520
    RHS1      c130      480
    RHS1      c131      -999520
    RHS1      c132      480
    RHS1      c133      -999520
    RHS1      c134      480
BOUNDS
 BV BND1      y[0,0,1]
 BV BND1      y[0,0,2]
 BV BND1      y[0,1,0]
 BV BND1      y[0,1,1]
 BV BND1      y[0,2,0]
 BV BND1      y[1,0,2]
 BV BND1      y[1,1,0]
 BV BND1      y[1,1,1]
 BV BND1      y[1,2,0]
 BV BND1      y[2,0,1]
 BV BND1      y[2,0,2]
 BV BND1      y[2,1,1]
 BV BND1      y[2,1,2]
 BV BND1      y[2,2,0]
 BV BND1      y[2,2,1]
 BV BND1      x[0,0,0,0]
 BV BND1      x[0,0,0,1]
 BV BND1      x[0,0,0,2]
 BV BND1      x[0,0,1,0]
 BV BND1      x[0,0,1,1]
 BV BND1      x[0,0,1,2]
 BV BND1      x[0,0,2,0]
 BV BND1      x[0,0,2,1]
 BV BND1      x[0,0,2,2]
 BV BND1      x[0,1,0,0]
 BV BND1      x[0,1,0,1]
 BV BND1      x[0,1,0,2]
 BV BND1      x[0,1,1,0]
 BV BND1      x[0,1,1,1]
 BV BND1      x[0,1,1,2]
 BV BND1      x[0,1,2,0]
 BV BND1      x[0,1,2,1]
 BV BND1      x[0,1,2,2]
 BV BND1      x[0,2,0,0]
 BV BND1      x[0,2,0,1]
 BV BND1      x[0,2,0,2]
 BV BND1      x[0,2,1,0]
 BV BND1      x[0,2,1,1]
 BV BND1      x[0,2,1,2]
 BV BND1      x[0,2,2,0]
 BV BND1      x[0,2,2,1]
 BV BND1      x[0,2,2,2]
 BV BND1      x[1,0,0,0]
 BV BND1      x[1,0,0,1]
 BV BND1      x[1,0,0,2]
 BV BND1      x[1,0,1,0]
 BV BND1      x[1,0,1,1]
 BV BND1      x[1,0,1,2]
 BV BND1      x[1,0,2,0]
 BV BND1      x[1,0,2,1]
 BV BND1      x[1,0,2,2]
 BV BND1      x[1,1,0,0]
 BV BND1      x[1,1,0,1]
 BV BND1      x[1,1,0,2]
 BV BND1      x[1,1,1,0]
 BV BND1      x[1,1,1,1]
 BV BND1      x[1,1,1,2]
 BV BND1      x[1,1,2,0]
 BV BND1      x[1,1,2,1]
 BV BND1      x[1,1,2,2]
 BV BND1      x[1,2,0,0]
 BV BND1      x[1,2,0,1]
 BV BND1      x[1,2,0,2]
 BV BND1      x[1,2,1,0]
 BV BND1      x[1,2,1,1]
 BV BND1      x[1,2,1,2]
 BV BND1      x[1,2,2,0]
 BV BND1      x[1,2,2,1]
 BV BND1      x[1,2,2,2]
 BV BND1      x[2,0,0,0]
 BV BND1      x[2,0,0,1]
 BV BND1      x[2,0,0,2]
 BV BND1      x[2,0,1,0]
 BV BND1      x[2,0,1,1]
 BV BND1      x[2,0,1,2]
 BV BND1      x[2,0,2,0]
 BV BND1      x[2,0,2,1]
 BV BND1      x[2,0,2,2]
 BV BND1      x[2,1,0,0]
 BV BND1      x[2,1,0,1]
 BV BND1      x[2,1,0,2]
 BV BND1      x[2,1,1,0]
 BV BND1      x[2,1,1,1]
 BV BND1      x[2,1,1,2]
 BV BND1      x[2,1,2,0]
 BV BND1      x[2,1,2,1]
 BV BND1      x[2,1,2,2]
 BV BND1      x[2,2,0,0]
 BV BND1      x[2,2,0,1]
 BV BND1      x[2,2,0,2]
 BV BND1      x[2,2,1,0]
 BV BND1      x[2,2,1,1]
 BV BND1      x[2,2,1,2]
 BV BND1      x[2,2,2,0]
 BV BND1      x[2,2,2,1]
 BV BND1      x[2,2,2,2]
 LI BND1      Z_FO      0
 BV BND1      C112    
 BV BND1      C113    
 BV BND1      C114    
 BV BND1      C115    
 BV BND1      C116    
QCMATRIX   OF_constraint
    s[0,0,1]  C112      -0.5
    C112      s[0,0,1]  -0.5
    s[0,0,2]  C113      -0.5
    C113      s[0,0,2]  -0.5
    s[1,0,2]  C114      -0.5
    C114      s[1,0,2]  -0.5
    s[2,0,1]  C115      -0.5
    C115      s[2,0,1]  -0.5
    s[2,0,2]  C116      -0.5
    C116      s[2,0,2]  -0.5
ENDATA
